8
4
0 20 42 25
20 0 30 34
42 30 0 10
25 34 10 0
3
0 3 2
3 0 1
2 1 0
2
0 2
2 0
6
0 23 50 21 28 48 
23 0 24 3 30 8 
50 24 0 48 25 32 
21 3 48 0 6 12 
28 30 25 6 0 17 
48 8 32 12 17 0 
5
0 18 29 23 10 
18 0 5 44 34 
29 5 0 14 29 
23 44 14 0 17 
10 34 29 17 0 
3
0 42 48 
42 0 21 
48 21 0 
4
0 21 20 7 
21 0 15 36 
20 15 0 12 
7 36 12 0 
4
0 32 50 29 
32 0 3 7 
50 3 0 32 
29 7 32 0 
